\ENCODING=ISO-8859-1
\Problem name: IloCplex

Maximize
 obj: - 0.777777777777778 v23 - v6 - 0.18970189701897 v1 - 0.281842818428184 v0
      - 0.0542005420054201 v2 + 1003 f2315 + 2 f2322 - 0.102981029810298 v22
      + f238 + 1000 f2324 + f2311 + 1001 f2215 + f2313 + 12 f1715
      + 999.894308943089 v17 + f1416 - 0.0785907859078591 v14 + f1412 + f108
      - 0.043360433604336 v10 + 1000 f68 + 1000 f06 + 1000 f09 + 1000 f023
      + f23 + 999.845528455285 v3 + 3 f014 + f1021 + f24 + 999.883468834688 v4
      + f2317 + 2 f07 + f018 - 0.040650406504065 v18 + f107 + f25
      + 999.894308943089 v5 + 1000 f015 + f1814 + 1000 f02 + f1820 + 1000 f04
      + 1000 f01 + 1000 f017 + f08 + 1001 f615
Subject To
 c1:  v24 <= 0
 c2:  v23 <= 1
 c3:  v23 >= 1
 c4:  v19 <= 0
 c5:  v16 <= 0
 c6:  v6 <= 1
 c7:  v6 >= 1
 c8:  v21 <= 0
 c9:  v20 <= 0
 c10: v8 <= 0
 c11: v1 <= 1
 c12: v1 >= 1
 c13: v0 <= 0
 c14: v7 <= 0
 c15: v9 <= 0
 c16: v11 <= 0
 c17: v2 <= 1
 c18: v2 >= 1
 c19: v15 <= 0
 c20: v12 <= 0
 c21: v13 <= 0
 c22: - v23 + v15 + f2315 <= 1
 c23: v23 - v15 + f2315 <= 1
 c24: - v23 + f2322 + v22 <= 1
 c25: v23 + f2322 - v22 <= 1
 c26: - v23 + v8 + f238 <= 1
 c27: v23 - v8 + f238 <= 1
 c28: v24 - v23 + f2324 <= 1
 c29: - v24 + v23 + f2324 <= 1
 c30: - v23 + v11 + f2311 <= 1
 c31: v23 - v11 + f2311 <= 1
 c32: v15 - v22 + f2215 <= 1
 c33: - v15 + v22 + f2215 <= 1
 c34: - v23 + v13 + f2313 <= 1
 c35: v23 - v13 + f2313 <= 1
 c36: v15 + f1715 - v17 <= 1
 c37: - v15 + f1715 + v17 <= 1
 c38: v16 + f1416 - v14 <= 1
 c39: - v16 + f1416 + v14 <= 1
 c40: v12 - v14 + f1412 <= 1
 c41: - v12 + v14 + f1412 <= 1
 c42: v8 + f108 - v10 <= 1
 c43: - v8 + f108 + v10 <= 1
 c44: - v6 + v8 + f68 <= 1
 c45: v6 - v8 + f68 <= 1
 c46: v6 - v0 + f06 <= 1
 c47: - v6 + v0 + f06 <= 1
 c48: - v0 + v9 + f09 <= 1
 c49: v0 - v9 + f09 <= 1
 c50: v23 - v0 + f023 <= 1
 c51: - v23 + v0 + f023 <= 1
 c52: - v2 + f23 + v3 <= 1
 c53: v2 + f23 - v3 <= 1
 c54: - v0 + v14 + f014 <= 1
 c55: v0 - v14 + f014 <= 1
 c56: v21 - v10 + f1021 <= 1
 c57: - v21 + v10 + f1021 <= 1
 c58: - v2 + f24 + v4 <= 1
 c59: v2 + f24 - v4 <= 1
 c60: - v23 + v17 + f2317 <= 1
 c61: v23 - v17 + f2317 <= 1
 c62: - v0 + v7 + f07 <= 1
 c63: v0 - v7 + f07 <= 1
 c64: - v0 + f018 + v18 <= 1
 c65: v0 + f018 - v18 <= 1
 c66: v7 - v10 + f107 <= 1
 c67: - v7 + v10 + f107 <= 1
 c68: - v2 + f25 + v5 <= 1
 c69: v2 + f25 - v5 <= 1
 c70: - v0 + v15 + f015 <= 1
 c71: v0 - v15 + f015 <= 1
 c72: v14 - v18 + f1814 <= 1
 c73: - v14 + v18 + f1814 <= 1
 c74: - v0 + v2 + f02 <= 1
 c75: v0 - v2 + f02 <= 1
 c76: v20 - v18 + f1820 <= 1
 c77: - v20 + v18 + f1820 <= 1
 c78: - v0 + v4 + f04 <= 1
 c79: v0 - v4 + f04 <= 1
 c80: v1 - v0 + f01 <= 1
 c81: - v1 + v0 + f01 <= 1
 c82: - v0 + v17 + f017 <= 1
 c83: v0 - v17 + f017 <= 1
 c84: v8 - v0 + f08 <= 1
 c85: - v8 + v0 + f08 <= 1
 c86: - v6 + v15 + f615 <= 1
 c87: v6 - v15 + f615 <= 1
Bounds
 0 <= v24 <= 1
 0 <= v23 <= 1
 0 <= v19 <= 1
 0 <= v16 <= 1
 0 <= v6 <= 1
 0 <= v21 <= 1
 0 <= v20 <= 1
 0 <= v8 <= 1
 0 <= v1 <= 1
 0 <= v0 <= 1
 0 <= v7 <= 1
 0 <= v9 <= 1
 0 <= v11 <= 1
 0 <= v2 <= 1
 0 <= v15 <= 1
 0 <= v12 <= 1
 0 <= v13 <= 1
 0 <= f2315 <= 1
 0 <= f2322 <= 1
 0 <= v22 <= 1
 0 <= f238 <= 1
 0 <= f2324 <= 1
 0 <= f2311 <= 1
 0 <= f2215 <= 1
 0 <= f2313 <= 1
 0 <= f1715 <= 1
 0 <= v17 <= 1
 0 <= f1416 <= 1
 0 <= v14 <= 1
 0 <= f1412 <= 1
 0 <= f108 <= 1
 0 <= v10 <= 1
 0 <= f68 <= 1
 0 <= f06 <= 1
 0 <= f09 <= 1
 0 <= f023 <= 1
 0 <= f23 <= 1
 0 <= v3 <= 1
 0 <= f014 <= 1
 0 <= f1021 <= 1
 0 <= f24 <= 1
 0 <= v4 <= 1
 0 <= f2317 <= 1
 0 <= f07 <= 1
 0 <= f018 <= 1
 0 <= v18 <= 1
 0 <= f107 <= 1
 0 <= f25 <= 1
 0 <= v5 <= 1
 0 <= f015 <= 1
 0 <= f1814 <= 1
 0 <= f02 <= 1
 0 <= f1820 <= 1
 0 <= f04 <= 1
 0 <= f01 <= 1
 0 <= f017 <= 1
 0 <= f08 <= 1
 0 <= f615 <= 1
End
